Minimize
 obj: - 19 x_0_0 - 18 x_1_0 - 16 x_2_0 - 18 x_3_0 - 17 x_4_0 - 16 x_5_0 

Subject To 
 knapsack_0: + 6 x_0_0 + 7 x_1_0 + 4 x_2_0 + 3 x_3_0 + 3 x_4_0 + 2 x_5_0 
  <= 8.0

Bounds

Binary
 x_0_0 x_1_0 x_2_0 x_3_0 x_4_0 x_5_0
General

End